Using license file /home/benedond/gurobi.lic
Using gurobi.env file
Set parameter Threads to value 1
Academic license - for non-commercial use only
Changed value of parameter TimeLimit to 300.0
   Prev: inf  Min: 0.0  Max: inf  Default: inf
Gurobi Optimizer version 9.0.1 build v9.0.1rc0 (linux64)
Optimize a model with 6600 rows, 3280 columns and 25758 nonzeros
Model fingerprint: 0xf0c7a0d2
Variable types: 40 continuous, 3240 integer (3200 binary)
Coefficient statistics:
  Matrix range     [2e-01, 5e+03]
  Objective range  [6e-04, 1e-01]
  Bounds range     [1e+00, 1e+00]
  RHS range        [1e+00, 5e+03]

---------------------------------------------------------------------------
Multi-objectives: starting optimization with 1 objectives ... 
---------------------------------------------------------------------------
---------------------------------------------------------------------------

Multi-objectives: optimize objective 1 (min avg power cons) ...
---------------------------------------------------------------------------

Optimize a model with 6600 rows, 3280 columns and 25758 nonzeros
Variable types: 40 continuous, 3240 integer (3200 binary)
Coefficient statistics:
  Matrix range     [2e-01, 5e+03]
  Objective range  [6e-04, 1e-01]
  Bounds range     [1e+00, 1e+00]
  RHS range        [1e+00, 5e+03]
Presolve removed 4053 rows and 2018 columns
Presolve time: 0.44s
Presolved: 2547 rows, 1262 columns, 9654 nonzeros
Variable types: 31 continuous, 1231 integer (1194 binary)

Root relaxation: objective 1.423826e+00, 464 iterations, 0.02 seconds

    Nodes    |    Current Node    |     Objective Bounds      |     Work
 Expl Unexpl |  Obj  Depth IntInf | Incumbent    BestBd   Gap | It/Node Time

     0     0    1.42383    0   94          -    1.42383      -     -    0s
H    0     0                       3.3748820    1.42383  57.8%     -    0s
H    0     0                       3.3183230    1.42383  57.1%     -    0s
     0     0    1.42383    0  114    3.31832    1.42383  57.1%     -    0s
H    0     0                       3.3092547    1.42383  57.0%     -    0s
     0     0    1.42383    0   99    3.30925    1.42383  57.0%     -    0s
     0     0    1.42383    0   92    3.30925    1.42383  57.0%     -    0s
H    0     0                       3.2869627    1.42383  56.7%     -    0s
     0     0    1.42383    0  104    3.28696    1.42383  56.7%     -    0s
     0     0    1.43982    0  209    3.28696    1.43982  56.2%     -    1s
     0     0    1.45402    0  203    3.28696    1.45402  55.8%     -    1s
     0     0    1.52215    0  182    3.28696    1.52215  53.7%     -    1s
     0     0    1.52608    0  189    3.28696    1.52608  53.6%     -    1s
     0     0    1.53328    0  211    3.28696    1.53328  53.4%     -    1s
H    0     0                       3.1189379    1.53328  50.8%     -    1s
     0     0    1.53478    0  223    3.11894    1.53478  50.8%     -    1s
     0     0    1.63440    0  123    3.11894    1.63440  47.6%     -    1s
     0     0    1.64852    0  143    3.11894    1.64852  47.1%     -    1s
     0     0    1.68152    0  156    3.11894    1.68152  46.1%     -    1s
     0     0    1.68394    0  183    3.11894    1.68394  46.0%     -    1s
     0     0    1.69669    0  186    3.11894    1.69669  45.6%     -    2s
     0     0    1.70289    0  221    3.11894    1.70289  45.4%     -    2s
     0     0    1.70511    0  205    3.11894    1.70511  45.3%     -    2s
     0     0    1.70662    0  200    3.11894    1.70662  45.3%     -    2s
     0     0    1.70700    0  234    3.11894    1.70700  45.3%     -    2s
     0     0    1.70704    0  222    3.11894    1.70704  45.3%     -    2s
     0     0    1.71624    0  185    3.11894    1.71624  45.0%     -    2s
     0     0    1.71841    0  206    3.11894    1.71841  44.9%     -    2s
     0     0    1.71866    0  226    3.11894    1.71866  44.9%     -    2s
     0     0    1.71877    0  208    3.11894    1.71877  44.9%     -    2s
     0     0    1.72829    0  200    3.11894    1.72829  44.6%     -    2s
     0     0    1.73314    0  238    3.11894    1.73314  44.4%     -    2s
     0     0    1.73370    0  239    3.11894    1.73370  44.4%     -    2s
     0     0    1.73390    0  223    3.11894    1.73390  44.4%     -    2s
     0     0    1.73405    0  233    3.11894    1.73405  44.4%     -    2s
     0     0    1.73421    0  233    3.11894    1.73421  44.4%     -    2s
     0     0    1.73424    0  231    3.11894    1.73424  44.4%     -    2s
     0     0    1.73876    0  249    3.11894    1.73876  44.3%     -    2s
     0     0    1.74066    0  273    3.11894    1.74066  44.2%     -    2s
     0     0    1.74111    0  251    3.11894    1.74111  44.2%     -    2s
     0     0    1.74132    0  253    3.11894    1.74132  44.2%     -    2s
     0     0    1.74141    0  314    3.11894    1.74141  44.2%     -    2s
     0     0    1.74420    0  266    3.11894    1.74420  44.1%     -    2s
     0     0    1.74613    0  258    3.11894    1.74613  44.0%     -    2s
     0     0    1.74671    0  265    3.11894    1.74671  44.0%     -    2s
     0     0    1.74689    0  266    3.11894    1.74689  44.0%     -    2s
     0     0    1.74697    0  270    3.11894    1.74697  44.0%     -    2s
     0     0    1.74976    0  268    3.11894    1.74976  43.9%     -    2s
     0     0    1.75158    0  244    3.11894    1.75158  43.8%     -    2s
     0     0    1.75214    0  287    3.11894    1.75214  43.8%     -    2s
     0     0    1.75214    0  287    3.11894    1.75214  43.8%     -    2s
     0     0    1.75550    0  256    3.11894    1.75550  43.7%     -    2s
     0     0    1.75767    0  262    3.11894    1.75767  43.6%     -    2s
     0     0    1.75822    0  250    3.11894    1.75822  43.6%     -    2s
     0     0    1.75841    0  282    3.11894    1.75841  43.6%     -    2s
     0     0    1.75842    0  269    3.11894    1.75842  43.6%     -    3s
     0     0    1.76015    0  279    3.11894    1.76015  43.6%     -    3s
     0     0    1.76062    0  283    3.11894    1.76062  43.6%     -    3s
     0     0    1.76070    0  279    3.11894    1.76070  43.5%     -    3s
     0     0    1.76163    0  263    3.11894    1.76163  43.5%     -    3s
     0     0    1.76163    0  261    3.11894    1.76163  43.5%     -    3s
H    0     0                       2.8898820    1.76164  39.0%     -    6s
     0     2    1.76164    0  261    2.88988    1.76164  39.0%     -    6s
H    9     9                       2.8857081    1.77402  38.5%   387    7s
   511   416    2.07653   25  261    2.88571    1.77764  38.4%  73.1   10s
H  513   396                       2.8825218    1.77764  38.3%  72.8   11s
H  515   378                       2.8776025    1.77764  38.2%  72.6   12s
   529   387    2.71274   74  286    2.87760    1.80064  37.4%  70.6   15s
H  545   377                       2.8753665    1.80816  37.1%  68.6   20s
   546   377    2.60813   32  280    2.87537    1.80816  37.1%  68.4   26s
   563   391    1.82642   20  206    2.87537    1.81944  36.7%  98.0   30s
   621   427    2.01987   49  174    2.87537    1.83597  36.1%   130   35s
H  785   512                       2.8525901    1.83597  35.6%   137   40s
H  882   528                       2.8251056    1.83597  35.0%   129   43s
  1011   560    1.94479   22  205    2.82511    1.84800  34.6%   127   45s
  1376   755    2.38485   30   98    2.82511    1.84812  34.6%   127   50s
  1778  1046    2.60535  125   71    2.82511    1.85479  34.3%   123   55s
  2353  1538    2.45085   37  122    2.82511    1.91758  32.1%   110   60s
  2727  1850    2.47449  110  126    2.82511    1.92767  31.8%   110   65s
  3244  2280    2.54710   56  158    2.82511    1.93918  31.4%   104   70s
H 3496  2467                       2.7726336    1.94432  29.9%   104   73s
  3637  2578    2.34696   29  112    2.77263    1.94470  29.9%   104   75s
  4198  3007    2.31360   25   99    2.77263    1.96261  29.2%   101   80s
H 4408  3131                       2.7706770    1.97227  28.8%  99.4   82s
H 4489  3152                       2.7496087    1.97247  28.3%   100   86s
  4598  3229    2.20223   31  254    2.74961    1.97787  28.1%   101   90s
  4923  3507    2.72401   91   94    2.74961    1.97952  28.0%   102   95s
H 5101  3574                       2.7407391    1.98286  27.7%   104  104s
  5102  3575    2.54914   36  261    2.74074    1.98286  27.7%   104  105s
  5119  3586    2.20797   80  299    2.74074    1.98286  27.7%   104  110s
  5131  3594 infeasible   26         2.74074    1.98286  27.7%   106  115s
  5139  3600    1.98286   30  251    2.74074    1.98286  27.7%   107  120s
  5165  3617    2.52430   43  124    2.74074    1.98286  27.7%   109  125s
  5221  3649    2.58645   71  146    2.74074    1.98286  27.7%   113  130s
H 5264  3495                       2.7361367    1.98286  27.5%   114  131s
  5399  3584    2.55161  160   82    2.73614    1.98286  27.5%   114  135s
  5576  3600    1.98286   47  199    2.73614    1.98286  27.5%   115  140s
  5824  3720    2.12068   60  136    2.73614    1.98286  27.5%   116  145s
  5907  3767    2.12608  102  141    2.73614    1.98286  27.5%   117  151s
  6128  3848    1.98286   30  240    2.73614    1.98286  27.5%   116  155s
  6489  4038    1.98286   39  219    2.73614    1.98286  27.5%   114  160s
  6747  4158    1.98286   37  217    2.73614    1.98286  27.5%   115  165s
  7116  4355    1.98286   39  190    2.73614    1.98286  27.5%   113  170s
  7434  4514    2.32771  100  109    2.73614    1.98286  27.5%   112  175s
  7814  4691    2.16532   47  186    2.73614    1.98286  27.5%   111  180s
  8298  4942    2.68227   54  163    2.73614    1.98286  27.5%   108  185s
  8574  5071    2.28805   51  142    2.73614    1.98286  27.5%   109  190s
  8822  5186    2.18958   48  147    2.73614    1.98286  27.5%   109  195s
  9121  5315    2.24861   62  130    2.73614    1.98286  27.5%   108  200s
  9423  5458    2.50641   62  187    2.73614    1.98286  27.5%   108  205s
  9458  5467    2.21899   45  189    2.73614    1.98286  27.5%   108  210s
  9781  5625    2.40293   83  161    2.73614    1.98286  27.5%   107  215s
 10137  5763    2.52668   37  122    2.73614    1.98286  27.5%   107  220s
 10265  5815    2.46358   54  135    2.73614    1.98286  27.5%   108  225s
 10546  5882    2.15469   43  194    2.73614    1.98286  27.5%   109  230s
 10786  6020    2.38396  134  120    2.73614    1.98286  27.5%   110  235s
 11238  6222    2.12713   54  262    2.73614    1.98286  27.5%   108  240s
 11582  6400    2.29414   45  149    2.73614    1.98286  27.5%   108  245s
 11805  6499    2.66756   76   98    2.73614    1.98286  27.5%   107  256s
 11900  6539    2.28626   65  124    2.73614    1.98286  27.5%   108  260s
 12084  6586    2.05815   46  162    2.73614    1.98286  27.5%   110  265s
 12240  6655    2.28136   56  137    2.73614    1.98286  27.5%   111  270s
 12476  6744    2.12995   44  187    2.73614    1.98286  27.5%   111  275s
 12584  6802    2.23085   59  255    2.73614    1.98286  27.5%   111  280s
 12838  6915    2.00781   33  199    2.73614    1.98286  27.5%   112  285s
 13079  7009    2.27007   57  147    2.73614    1.98286  27.5%   112  290s
 13306  7084    2.71074   69  166    2.73614    1.98286  27.5%   112  295s

Cutting planes:
  Gomory: 1
  Cover: 49
  Implied bound: 87
  Projected implied bound: 109
  MIR: 303
  Flow cover: 529
  GUB cover: 10
  Mod-K: 4
  RLT: 4
  Relax-and-lift: 305

Explored 13477 nodes (1537571 simplex iterations) in 300.01 seconds
Thread count was 1 (of 4 available processors)

Solution count 10: 2.73614 2.74074 2.74961 ... 2.88252

Time limit reached
Best objective 2.736136657536e+00, best bound 1.982859150547e+00, gap 27.5307%

---------------------------------------------------------------------------
Multi-objectives: stopped in 300.02 seconds, solution count 10
Time Limit reached

